NAME : instances/50-tsp/instance-29.tsp
COMMENT : No comment
TYPE : TSP
DIMENSION: 50
EDGE_WEIGHT_TYPE : EUC_2D
NODE_COORD_SECTION
1 1990 435 
2 378 245 
3 362 619 
4 136 919 
5 595 1381 
6 1093 686 
7 639 1272 
8 1335 1103 
9 518 237 
10 170 1024 
11 700 891 
12 1033 1431 
13 149 1592 
14 1010 1386 
15 552 1336 
16 1365 1525 
17 841 1615 
18 196 997 
19 1827 907 
20 354 193 
21 583 825 
22 880 694 
23 811 244 
24 231 1706 
25 773 1174 
26 1350 1911 
27 1082 1741 
28 1031 919 
29 1084 19 
30 1978 1172 
31 1413 1222 
32 1301 1709 
33 1995 130 
34 1229 1595 
35 1943 812 
36 1216 427 
37 701 695 
38 1532 1786 
39 506 525 
40 1344 1564 
41 110 926 
42 1725 542 
43 1230 996 
44 1103 1322 
45 880 156 
46 1007 1556 
47 902 1570 
48 1947 1221 
49 1805 1458 
50 265 780 
EOF
